container_size = [48, 36, 15];
Box = B(1..6);
no_boxes = [10, 33, 10, 27, 15, 25];
box_size =
[|       Length: Width: Height: 
 | B(1):      9,     2,      2
 | B(2):      4,     3,      2
 | B(3):     12,     3,      2
 | B(4):      5,     3,      2
 | B(5):      8,     4,      2
 | B(6):      6,     3,      2
 |];
